Mg1 Bi18 Cl19 O18                       
   1.00000000000000     
    11.7258262336110288   -0.0123847803080137    0.0406609674434375
    -0.0123874403273647   11.7265738445093088   -0.0313991108891112
     0.0273833016989766   -0.0211345418750314    7.6751868899884554
   Mg   Bi   Cl   O 
     1    18    19    18
Direct
  0.8490231397816029  0.1708119110823787  0.4949567250420857
  0.0103638827058920  0.1923459560210526  0.8414938949823457
  0.9914671874035795  0.5062066804882234  0.7893418341550684
  0.9783411629658398  0.8215068493755293  0.8085232910642763
  0.3647248074058732  0.1706880088509864  0.8388966465871774
  0.3457945842541258  0.5101922085271213  0.8223197801192408
  0.3303205800496716  0.8518861789621439  0.8236350515953461
  0.6559490992169261  0.1665316674563471  0.8854878027103850
  0.6457247057075440  0.4926289872429068  0.8456284592195087
  0.6363663980115811  0.8138456322783574  0.8328294216943271
  0.1638366136663134  0.0019570604048273  0.1321059176499154
  0.1693774027037136  0.3528180532649193  0.1692433745038149
  0.1586491566667188  0.6733364794434940  0.1372867383353622
  0.4986105847793166  0.9779878310334010  0.1923148261680782
  0.5082660576312714  0.3336926413261278  0.2238834282217540
  0.4980441059191008  0.6748992050093831  0.1726016627753250
  0.8476690214765700  0.9837756361130574  0.1399789092468623
  0.8351918036301768  0.3712917827396683  0.1557347440281267
  0.8129080449766625  0.6693697272711259  0.1905855164447257
  0.0048102191416192  0.3521119159340790  0.5120526594061536
  0.2058045742148297  0.0066683320898491  0.6552438788593593
  0.2213755458326615  0.3235155627859633  0.6756731099943755
  0.1770119357085612  0.6342570489043864  0.6269518487010106
  0.5233582280041339  0.9975271133785018  0.6442609594399327
  0.5203682164676785  0.3245788162140113  0.6696004627959421
  0.4873076014084164  0.6798884764912239  0.6320451723537813
  0.8059889254732995  0.0074419793329340  0.6416128630955384
  0.7794220663657778  0.3207191258480085  0.7218702597113189
  0.8082295066386975  0.6589812760796600  0.6723052723260532
  0.9992256387511590  0.1106282661616706  0.3498739561272332
  0.9783247255538881  0.5392887016445480  0.2841478960896566
  0.0043728773100879  0.8338756468135008  0.3099984265957932
  0.3473620743576702  0.1334144472838970  0.3723201980559774
  0.3163914559965584  0.4786223077119524  0.3211536313454661
  0.3190523641925392  0.8147296609869499  0.3284618035588305
  0.6858486308071267  0.1457963907835601  0.3457674900198600
  0.6894967709512385  0.5065758993661125  0.3590807843754412
  0.6603573475680442  0.8278837628205369  0.3539461246196132
  0.9897922812784261  0.0054433666772866  0.9455426784387392
  0.0096996128878778  0.3563797571320405  0.9991969008663212
  0.9775703095521940  0.6725212548405555  0.9821862267433099
  0.3297882535181202  0.0033275869825048  0.9753574325759518
  0.3357152408949414  0.3272396592575778  0.0365005573666695
  0.3358631790847381  0.6603117573370655  0.9932752427989198
  0.6514821629732169  0.9794049237408660  0.0003680532340078
  0.6437126410884335  0.3359474146082321  0.0284357139002217
  0.6548972828204429  0.6619763366685973  0.0126021991198243
  0.1464216469765011  0.1673143406967110  0.0115283141696263
  0.1524037329311568  0.5090874644983634  0.0283472785890160
  0.1614110908152582  0.8214945012171941  0.9358843440913354
  0.4965778502774920  0.1656546782755087  0.0637503159197740
  0.4951069713475153  0.5071950900993876  0.0190191745892628
  0.4811714318733102  0.8166801686880647  0.0099607675513879
  0.8289077817444510  0.1831143830311054  0.0160195250155767
  0.8281728167772571  0.5200290689947545  0.9893389008147759
  0.8209269313165424  0.8251956421522790  0.9872963961814344
 
 -0.37285969E-03 -0.14760956E-02  0.26760732E-02
 -0.52554018E-03  0.49544609E-02 -0.17763740E-02
  0.13111352E-02 -0.10042145E-02 -0.65467428E-03
 -0.16271049E-02  0.50681364E-03 -0.64994716E-03
  0.20702053E-02 -0.49513922E-03 -0.37443798E-02
  0.37079373E-03 -0.48767136E-03  0.75209693E-03
 -0.21080562E-02  0.12235659E-02 -0.77071490E-03
  0.17354148E-02  0.59426017E-03  0.22982633E-02
  0.21109942E-02 -0.50164393E-02  0.19504133E-03
 -0.12970967E-02 -0.10434016E-02  0.11192250E-02
 -0.25324532E-02 -0.18061078E-02 -0.31601153E-02
 -0.87243281E-03  0.81470996E-03  0.16785967E-02
 -0.29396036E-02  0.58127940E-03 -0.20266721E-02
  0.91074421E-03  0.20181273E-02 -0.35288727E-03
  0.31819887E-02  0.19910430E-03 -0.30837041E-03
 -0.27034184E-02 -0.41560863E-03  0.18725599E-02
  0.34960031E-02 -0.68576406E-03 -0.77844968E-03
  0.11630999E-02 -0.52815489E-03 -0.13903218E-02
  0.23310091E-02  0.11067888E-02 -0.49088890E-03
 -0.39567091E-04  0.10018239E-03 -0.18710728E-02
 -0.14808080E-02  0.58717120E-02 -0.12349677E-02
  0.86476008E-03 -0.99631114E-03  0.69127524E-03
 -0.23654253E-02  0.14985169E-03 -0.48824620E-02
 -0.78385042E-02 -0.72873482E-03  0.23573080E-02
  0.28386104E-02 -0.36796440E-02  0.41712591E-02
 -0.50368210E-02 -0.59244446E-02  0.42557491E-02
  0.40228677E-02 -0.38833037E-03  0.50972269E-02
  0.40232844E-02 -0.12140647E-02 -0.48661749E-03
 -0.42526902E-02 -0.41993051E-02  0.36172831E-02
 -0.23737495E-02  0.24455860E-02 -0.65611703E-02
  0.12131374E-01  0.67600353E-03  0.15506890E-01
  0.33693523E-02 -0.35045124E-02  0.53105431E-02
 -0.13951658E-02 -0.19539693E-02  0.21322981E-02
  0.67320999E-03 -0.65488643E-02 -0.74850667E-02
 -0.30378426E-02  0.18044825E-02  0.31396455E-02
  0.59825835E-03  0.52718281E-02  0.95973548E-03
  0.11289426E-02 -0.37319064E-02  0.34553458E-02
  0.64986812E-02  0.11228195E-01  0.72860003E-03
  0.52345064E-02  0.50452184E-02  0.52573466E-02
 -0.49938624E-02 -0.64108135E-02  0.29299609E-02
 -0.59294796E-02  0.47583615E-02 -0.84474310E-02
  0.11683811E-01 -0.50686052E-02  0.14448913E-01
 -0.26051014E-02 -0.42947799E-02 -0.12962610E-01
 -0.10535264E-01  0.12018680E-02  0.10701273E-01
 -0.11609445E-01  0.55370778E-02  0.13042660E-02
 -0.47162832E-02  0.58562893E-02 -0.25572417E-02
 -0.30673101E-02 -0.31937299E-02  0.92757442E-02
 -0.50995281E-02 -0.15252561E-02  0.14027754E-01
 -0.14724183E-01 -0.62805037E-02  0.27423864E-02
 -0.26763676E-02  0.62784319E-02  0.43607860E-02
 -0.14385071E-02  0.30549271E-02  0.65082857E-02
  0.24403692E-02  0.43146572E-02 -0.54064668E-04
 -0.12928744E-01  0.12731781E-01  0.17064641E-02
 -0.40952190E-03 -0.50080139E-02 -0.75710534E-02
 -0.67719556E-03 -0.58701293E-02  0.99809550E-03
 -0.90699905E-02 -0.38389626E-02 -0.38292933E-02
 
           1
   2.00000000000000     
  0.34898491E+00  0.38550204E-02 -0.61685028E-02  0.00000000E+00
  0.84895765E+00  0.17056135E+00  0.49565338E+00
  0.10276208E-01  0.19319003E+00  0.84103493E+00
  0.99169104E+00  0.50603533E+00  0.78916935E+00
  0.97806412E+00  0.82159269E+00  0.80835575E+00
  0.36508010E+00  0.17060217E+00  0.83791870E+00
  0.34585728E+00  0.51010945E+00  0.82251509E+00
  0.32996170E+00  0.85209413E+00  0.82343697E+00
  0.65624381E+00  0.16663441E+00  0.88608554E+00
  0.64608376E+00  0.49177388E+00  0.84567388E+00
  0.63614429E+00  0.81366797E+00  0.83312152E+00
  0.16340626E+00  0.16470869E-02  0.13128347E+00
  0.16922772E+00  0.35295764E+00  0.16968215E+00
  0.15814910E+00  0.67343414E+00  0.13676168E+00
  0.49876650E+00  0.97833203E+00  0.19222345E+00
  0.50880902E+00  0.33372702E+00  0.22380034E+00
  0.49758178E+00  0.67482872E+00  0.17309178E+00
  0.84826567E+00  0.98365894E+00  0.13977242E+00
  0.83539094E+00  0.37120126E+00  0.15537103E+00
  0.81330613E+00  0.66955868E+00  0.19045626E+00
  0.48046259E-02  0.35212812E+00  0.51156519E+00
  0.20555380E+00  0.76689339E-02  0.65492749E+00
  0.22152245E+00  0.32334612E+00  0.67585177E+00
  0.17661147E+00  0.63427989E+00  0.62568179E+00
  0.52201968E+00  0.99740253E+00  0.64488181E+00
  0.52084919E+00  0.32395370E+00  0.67068230E+00
  0.48644485E+00  0.67887913E+00  0.63315458E+00
  0.80667192E+00  0.73788567E-02  0.64293722E+00
  0.78010838E+00  0.32051255E+00  0.72173898E+00
  0.80750119E+00  0.65826600E+00  0.67324880E+00
  0.99882518E+00  0.11104187E+00  0.34816806E+00
  0.98038462E+00  0.53941344E+00  0.28817828E+00
  0.49437194E-02  0.83328103E+00  0.31137679E+00
  0.34712246E+00  0.13308194E+00  0.37287574E+00
  0.31650966E+00  0.47750198E+00  0.31919796E+00
  0.31853262E+00  0.81503835E+00  0.32928395E+00
  0.68595103E+00  0.14669608E+00  0.34602072E+00
  0.68968656E+00  0.50594123E+00  0.35997758E+00
  0.66146736E+00  0.82980028E+00  0.35413794E+00
  0.99068281E+00  0.63072502E-02  0.94691145E+00
  0.88449037E-02  0.35528685E+00  0.99996045E+00
  0.97656493E+00  0.67332779E+00  0.97999362E+00
  0.33177142E+00  0.24719772E-02  0.97910852E+00
  0.33527801E+00  0.32650062E+00  0.33122054E-01
  0.33405993E+00  0.66051988E+00  0.99607418E+00
  0.64950218E+00  0.98034784E+00  0.72226566E-03
  0.64291080E+00  0.33694419E+00  0.27777674E-01
  0.65436789E+00  0.66143544E+00  0.15019864E-01
  0.14554304E+00  0.16705987E+00  0.15187280E-01
  0.14988950E+00  0.50801496E+00  0.29070822E-01
  0.16095306E+00  0.82256688E+00  0.93702749E+00
  0.49632908E+00  0.16617850E+00  0.65449706E-01
  0.49552402E+00  0.50793138E+00  0.19005889E-01
  0.47896746E+00  0.81885012E+00  0.10425991E-01
  0.82884164E+00  0.18225662E+00  0.14043501E-01
  0.82805566E+00  0.51902824E+00  0.98959551E+00
  0.81938154E+00  0.82453748E+00  0.98630405E+00
 -0.46242290E-04 -0.33641980E-03  0.59728403E-03
 -0.81345410E-04  0.85395088E-03 -0.46481919E-03
  0.22139663E-03 -0.17979610E-03 -0.19792918E-03
 -0.28073556E-03  0.85342113E-04 -0.17434288E-03
  0.36577793E-03 -0.92332950E-04 -0.98923992E-03
  0.68392265E-04 -0.83568108E-04  0.18001637E-03
 -0.35730260E-03  0.22258388E-03 -0.17858236E-03
  0.29371248E-03  0.11692855E-03  0.59538458E-03
  0.35890411E-03 -0.86825137E-03  0.37770041E-04
 -0.23578421E-03 -0.18953046E-03  0.29222605E-03
 -0.43332706E-03 -0.30816831E-03 -0.82323259E-03
 -0.15147847E-03  0.15051727E-03  0.43990060E-03
 -0.50489984E-03  0.91476128E-04 -0.52620006E-03
  0.15742970E-03  0.33813055E-03 -0.87691505E-04
  0.56196152E-03  0.38332042E-04 -0.70590585E-04
 -0.45255614E-03 -0.53821234E-04  0.47979217E-03
  0.60997096E-03 -0.12118834E-03 -0.19766734E-03
  0.19607746E-03 -0.78290605E-04 -0.36119005E-03
  0.39408296E-03  0.17878414E-03 -0.10913345E-03
  0.38591380E-04  0.54872471E-04 -0.48060742E-03
 -0.21037971E-03  0.99376022E-03 -0.29321368E-03
  0.15012702E-03 -0.15846136E-03  0.16409201E-03
 -0.37886296E-03  0.24029570E-04 -0.12930272E-02
 -0.13180330E-02 -0.12477180E-03  0.60924182E-03
  0.51836108E-03 -0.63277665E-03  0.11300065E-02
 -0.87016763E-03 -0.97239138E-03  0.11181816E-02
  0.66965077E-03 -0.40359809E-04  0.12885275E-02
  0.61057592E-03 -0.22258798E-03 -0.15436022E-06
 -0.75273449E-03 -0.71683183E-03  0.10129736E-02
 -0.45906790E-03  0.41037017E-03 -0.16984739E-02
  0.20418646E-02  0.13499482E-03  0.39546823E-02
  0.59446683E-03 -0.60463049E-03  0.13541087E-02
 -0.23243181E-03 -0.35508313E-03  0.58767256E-03
  0.67662940E-04 -0.11874712E-02 -0.20727168E-02
 -0.53068867E-03  0.27692827E-03  0.80770688E-03
  0.14890311E-03  0.87385116E-03  0.27951244E-03
  0.23122936E-03 -0.61847252E-03  0.86510417E-03
  0.11149382E-02  0.19152820E-02  0.17967660E-03
  0.87204293E-03  0.96582093E-03  0.12378682E-02
 -0.69594709E-03 -0.10251040E-02  0.95174680E-03
 -0.11557317E-02  0.79753964E-03 -0.20864471E-02
  0.19298218E-02 -0.88564149E-03  0.34617912E-02
 -0.50764587E-03 -0.72355115E-03 -0.32738936E-02
 -0.17473336E-02  0.18667887E-03  0.28181112E-02
 -0.19918121E-02  0.90461075E-03  0.25005560E-03
 -0.91281006E-03  0.90727386E-03 -0.69035115E-03
 -0.52597759E-03 -0.57986022E-03  0.24708861E-02
 -0.10014168E-02 -0.28724290E-03  0.36395993E-02
 -0.26147287E-02 -0.10035848E-02  0.11378078E-02
 -0.39135785E-03  0.10251214E-02  0.98418686E-03
 -0.30226937E-03  0.55597951E-03  0.17540221E-02
  0.41610343E-03  0.82627218E-03 -0.13831636E-04
 -0.23039435E-02  0.19947755E-02  0.55215872E-03
 -0.13236707E-03 -0.79996599E-03 -0.19833057E-02
  0.27599890E-05 -0.86580461E-03  0.31017676E-03
 -0.15829550E-02 -0.69827557E-03 -0.92203579E-03
  0.00000000E+00  0.00000000E+00  0.00000000E+00
  0.00000000E+00  0.00000000E+00  0.00000000E+00
  0.00000000E+00  0.00000000E+00  0.00000000E+00
  0.00000000E+00  0.00000000E+00  0.00000000E+00
  0.00000000E+00  0.00000000E+00  0.00000000E+00
  0.00000000E+00  0.00000000E+00  0.00000000E+00
  0.00000000E+00  0.00000000E+00  0.00000000E+00
  0.00000000E+00  0.00000000E+00  0.00000000E+00
  0.00000000E+00  0.00000000E+00  0.00000000E+00
  0.00000000E+00  0.00000000E+00  0.00000000E+00
  0.00000000E+00  0.00000000E+00  0.00000000E+00
  0.00000000E+00  0.00000000E+00  0.00000000E+00
  0.00000000E+00  0.00000000E+00  0.00000000E+00
  0.00000000E+00  0.00000000E+00  0.00000000E+00
  0.00000000E+00  0.00000000E+00  0.00000000E+00
  0.00000000E+00  0.00000000E+00  0.00000000E+00
  0.00000000E+00  0.00000000E+00  0.00000000E+00
  0.00000000E+00  0.00000000E+00  0.00000000E+00
  0.00000000E+00  0.00000000E+00  0.00000000E+00
  0.00000000E+00  0.00000000E+00  0.00000000E+00
  0.00000000E+00  0.00000000E+00  0.00000000E+00
  0.00000000E+00  0.00000000E+00  0.00000000E+00
  0.00000000E+00  0.00000000E+00  0.00000000E+00
  0.00000000E+00  0.00000000E+00  0.00000000E+00
  0.00000000E+00  0.00000000E+00  0.00000000E+00
  0.00000000E+00  0.00000000E+00  0.00000000E+00
  0.00000000E+00  0.00000000E+00  0.00000000E+00
  0.00000000E+00  0.00000000E+00  0.00000000E+00
  0.00000000E+00  0.00000000E+00  0.00000000E+00
  0.00000000E+00  0.00000000E+00  0.00000000E+00
  0.00000000E+00  0.00000000E+00  0.00000000E+00
  0.00000000E+00  0.00000000E+00  0.00000000E+00
  0.00000000E+00  0.00000000E+00  0.00000000E+00
  0.00000000E+00  0.00000000E+00  0.00000000E+00
  0.00000000E+00  0.00000000E+00  0.00000000E+00
  0.00000000E+00  0.00000000E+00  0.00000000E+00
  0.00000000E+00  0.00000000E+00  0.00000000E+00
  0.00000000E+00  0.00000000E+00  0.00000000E+00
  0.00000000E+00  0.00000000E+00  0.00000000E+00
  0.00000000E+00  0.00000000E+00  0.00000000E+00
  0.00000000E+00  0.00000000E+00  0.00000000E+00
  0.00000000E+00  0.00000000E+00  0.00000000E+00
  0.00000000E+00  0.00000000E+00  0.00000000E+00
  0.00000000E+00  0.00000000E+00  0.00000000E+00
  0.00000000E+00  0.00000000E+00  0.00000000E+00
  0.00000000E+00  0.00000000E+00  0.00000000E+00
  0.00000000E+00  0.00000000E+00  0.00000000E+00
  0.00000000E+00  0.00000000E+00  0.00000000E+00
  0.00000000E+00  0.00000000E+00  0.00000000E+00
  0.00000000E+00  0.00000000E+00  0.00000000E+00
  0.00000000E+00  0.00000000E+00  0.00000000E+00
  0.00000000E+00  0.00000000E+00  0.00000000E+00
  0.00000000E+00  0.00000000E+00  0.00000000E+00
  0.00000000E+00  0.00000000E+00  0.00000000E+00
  0.00000000E+00  0.00000000E+00  0.00000000E+00
  0.00000000E+00  0.00000000E+00  0.00000000E+00
