Mg1 Bi18 Cl19 O18                       
   1.00000000000000     
    11.7258262336110288   -0.0123847803080137    0.0406609674434375
    -0.0123874403273647   11.7265738445093088   -0.0313991108891112
     0.0273833016989766   -0.0211345418750314    7.6751868899884554
   Mg   Bi   Cl   O 
     1    18    19    18
Direct
  0.6866975670266375  0.3533889269306588  0.4997820335478471
  0.0071911293691024  0.1549037915986688  0.8394185473611603
  0.0049242339379044  0.5030547759576557  0.8284801436986544
  0.0007514841165108  0.8349578187471305  0.8382573625742443
  0.3308850030498622  0.1588656690873881  0.8274895974191677
  0.3311123920988563  0.5036085278296802  0.8169208087992916
  0.3320122996467970  0.8350549498023315  0.8275900162849242
  0.6664621153617293  0.1541804804638613  0.8535716226864383
  0.6649932720663219  0.5084998557052122  0.8525234962274015
  0.6690253761425623  0.8363683103281653  0.8428825295309637
  0.1681696331909358 -0.0014429310367286  0.1725079956573435
  0.1693802819819395  0.3355506053377382  0.1571842092372303
  0.1679582239153430  0.6671724925461058  0.1619169822388307
  0.4920342785254651 -0.0025107428500173  0.1724208936186772
  0.4873097894252555  0.3329239175907093  0.1462265999704951
  0.4880134670479301  0.6736921432423434  0.1605283235567107
  0.8367638744643435 -0.0023055537536255  0.1831392834003786
  0.8416058337254479  0.3316766257939653  0.1473322973434043
  0.8361091841701468  0.6715447737457210  0.1715567937420666
  0.8280783745569615  0.4957751406419978  0.5005455524906365
  0.1672133063041562  0.0002752843485708  0.6499939491300314
  0.1610672050902127  0.3302887976507648  0.6542045576403382
  0.1621033024214213  0.6685724995770289  0.6523850963688403
  0.5016060371535268 -0.0023514807482692  0.6554854843806793
  0.5108494790518946  0.3323684785386081  0.6491363068845535
  0.5079567850383808  0.6701245670903641  0.6589691669693365
  0.8321513657690683 -0.0046255436362977  0.6672633124497195
  0.8351321720448804  0.2850362609945912  0.6813905981226209
  0.8337677614111629  0.7047236734970115  0.6786808965501260
  0.0033593414415270  0.1743796242287907  0.3409630289206508
  0.0372111408826179  0.4998858229426524  0.3216690221121804
  0.0016082581954995  0.8286640094869570  0.3475784973398801
  0.3308171056313086  0.1680999685571849  0.3444700746974935
  0.3283734972491005  0.4985569245938302  0.3327645714309394
  0.3334242859048903  0.8336562118679498  0.3500556645325630
  0.6654379249127603  0.1774941243736774  0.3511084910195264
  0.6183430474131200  0.5013739512987360  0.3175424397895944
  0.6635244275293664  0.8275988241769718  0.3458189095691659
  0.0004341050264639 -0.0018951568491431  0.0166133540347176
  0.0024985905216924  0.3321941888713462 -0.0098736185594590
  0.0011144490297593  0.6678539070534041  0.0000713866561119
  0.3318245126050571 -0.0014854128655260 -0.0000238187735670
  0.3321774457943299  0.3336277848259678 -0.0262735261563838
  0.3313040229997060  0.6671615413277934 -0.0164433134169954
  0.6669795683393741 -0.0010412548493396  0.0261272398525181
  0.6651795006742574  0.3317596628526128 -0.0002196744614977
  0.6654880171516363  0.6693201837715538  0.0097779206601767
  0.1708343467640139  0.1604309372326924 -0.0013197449640654
  0.1693552624534679  0.5019977091372425 -0.0139021684921776
  0.1698243974535388  0.8364281681724574  0.0002257652716512
  0.4941231728887444  0.1607561591034505 -0.0001191850449280
  0.4932096300837052  0.5015570362272692 -0.0125812667603210
  0.4937412116072384  0.8374926525726190  0.0013898208859854
  0.8348305674070898  0.1600620749975885  0.0125061388662932
  0.8350425944444072  0.5018072830724480  0.0000296299409979
  0.8352842194905896  0.8362238097975004  0.0142600291667817
 
  0.00000000E+00  0.00000000E+00  0.00000000E+00
  0.00000000E+00  0.00000000E+00  0.00000000E+00
  0.00000000E+00  0.00000000E+00  0.00000000E+00
  0.00000000E+00  0.00000000E+00  0.00000000E+00
  0.00000000E+00  0.00000000E+00  0.00000000E+00
  0.00000000E+00  0.00000000E+00  0.00000000E+00
  0.00000000E+00  0.00000000E+00  0.00000000E+00
  0.00000000E+00  0.00000000E+00  0.00000000E+00
  0.00000000E+00  0.00000000E+00  0.00000000E+00
  0.00000000E+00  0.00000000E+00  0.00000000E+00
  0.00000000E+00  0.00000000E+00  0.00000000E+00
  0.00000000E+00  0.00000000E+00  0.00000000E+00
  0.00000000E+00  0.00000000E+00  0.00000000E+00
  0.00000000E+00  0.00000000E+00  0.00000000E+00
  0.00000000E+00  0.00000000E+00  0.00000000E+00
  0.00000000E+00  0.00000000E+00  0.00000000E+00
  0.00000000E+00  0.00000000E+00  0.00000000E+00
  0.00000000E+00  0.00000000E+00  0.00000000E+00
  0.00000000E+00  0.00000000E+00  0.00000000E+00
  0.00000000E+00  0.00000000E+00  0.00000000E+00
  0.00000000E+00  0.00000000E+00  0.00000000E+00
  0.00000000E+00  0.00000000E+00  0.00000000E+00
  0.00000000E+00  0.00000000E+00  0.00000000E+00
  0.00000000E+00  0.00000000E+00  0.00000000E+00
  0.00000000E+00  0.00000000E+00  0.00000000E+00
  0.00000000E+00  0.00000000E+00  0.00000000E+00
  0.00000000E+00  0.00000000E+00  0.00000000E+00
  0.00000000E+00  0.00000000E+00  0.00000000E+00
  0.00000000E+00  0.00000000E+00  0.00000000E+00
  0.00000000E+00  0.00000000E+00  0.00000000E+00
  0.00000000E+00  0.00000000E+00  0.00000000E+00
  0.00000000E+00  0.00000000E+00  0.00000000E+00
  0.00000000E+00  0.00000000E+00  0.00000000E+00
  0.00000000E+00  0.00000000E+00  0.00000000E+00
  0.00000000E+00  0.00000000E+00  0.00000000E+00
  0.00000000E+00  0.00000000E+00  0.00000000E+00
  0.00000000E+00  0.00000000E+00  0.00000000E+00
  0.00000000E+00  0.00000000E+00  0.00000000E+00
  0.00000000E+00  0.00000000E+00  0.00000000E+00
  0.00000000E+00  0.00000000E+00  0.00000000E+00
  0.00000000E+00  0.00000000E+00  0.00000000E+00
  0.00000000E+00  0.00000000E+00  0.00000000E+00
  0.00000000E+00  0.00000000E+00  0.00000000E+00
  0.00000000E+00  0.00000000E+00  0.00000000E+00
  0.00000000E+00  0.00000000E+00  0.00000000E+00
  0.00000000E+00  0.00000000E+00  0.00000000E+00
  0.00000000E+00  0.00000000E+00  0.00000000E+00
  0.00000000E+00  0.00000000E+00  0.00000000E+00
  0.00000000E+00  0.00000000E+00  0.00000000E+00
  0.00000000E+00  0.00000000E+00  0.00000000E+00
  0.00000000E+00  0.00000000E+00  0.00000000E+00
  0.00000000E+00  0.00000000E+00  0.00000000E+00
  0.00000000E+00  0.00000000E+00  0.00000000E+00
  0.00000000E+00  0.00000000E+00  0.00000000E+00
  0.00000000E+00  0.00000000E+00  0.00000000E+00
  0.00000000E+00  0.00000000E+00  0.00000000E+00
