Li16 Ge4 S16 <s> Li Ge S </s>
  1.00000000000000
     0.00000000000000     0.00000000000000    14.16110800000000
     6.19493900000000    -7.81391100000000     0.00000000000000
     6.19493900000000     7.81391100000000     0.00000000000000
  Li    Ge    S     
  32    8     32    
Direct
     0.58676600000000      0.18982000000000      0.43982000000000   
     0.58676600000000      0.68982000000000      0.93982000000000   
     0.91323400000000     -0.31018000000000      0.43982000000000   
     0.91323400000000      0.18982000000000      0.93982000000000   
     0.41323400000000     -0.18982000000000      0.56018000000000   
     0.41323400000000      0.31018000000000      1.06018000000000   
     0.08676600000000      0.31018000000000      0.56018000000000   
     0.08676600000000      0.81018000000000      1.06018000000000   
     0.82295700000000      0.34615000000000      0.34643900000000   
     0.82295700000000      0.84615000000000      0.84643900000000   
     0.67704300000000     -0.40356100000000      0.59615000000000   
     0.67704300000000      0.09643900000000      1.09615000000000   
     0.17704300000000     -0.09643900000000      0.40385000000000   
     0.17704300000000      0.40356100000000      0.90385000000000   
     0.32295700000000      0.15385000000000      0.65356100000000   
     0.32295700000000      0.65385000000000      1.15356100000000   
     0.17704300000000     -0.34615000000000      0.65356100000000   
     0.17704300000000      0.15385000000000      1.15356100000000   
     0.32295700000000      0.40356100000000      0.40385000000000   
     0.32295700000000      0.90356100000000      0.90385000000000   
     0.82295700000000      0.09643900000000      0.59615000000000   
     0.82295700000000      0.59643900000000      1.09615000000000   
     0.67704300000000     -0.15385000000000      0.34643900000000   
     0.67704300000000      0.34615000000000      0.84643900000000   
     0.00000000000000      0.25000000000000      0.25000000000000   
     0.00000000000000      0.75000000000000      0.75000000000000   
     0.50000000000000      0.00000000000000      0.00000000000000   
     0.50000000000000      0.50000000000000      0.50000000000000   
     0.00000000000000      0.00000000000000      0.50000000000000   
     0.00000000000000      0.50000000000000      1.00000000000000   
     0.50000000000000     -0.25000000000000      0.25000000000000   
     0.50000000000000      0.25000000000000      0.75000000000000   
     0.08913100000000      0.04989500000000      0.79989500000000   
     0.08913100000000      0.54989500000000      1.29989500000000   
     0.91086900000000     -0.04989500000000      0.20010500000000   
     0.91086900000000      0.45010500000000      0.70010500000000   
     0.58913100000000     -0.04989500000000      0.70010500000000   
     0.58913100000000      0.45010500000000      1.20010500000000   
     0.41086900000000      0.04989500000000      0.29989500000000   
     0.41086900000000      0.54989500000000      0.79989500000000   
     0.06223400000000      0.00968800000000      0.25968800000000   
     0.06223400000000      0.50968800000000      0.75968800000000   
     0.56223400000000     -0.00968800000000      0.24031200000000   
     0.56223400000000      0.49031200000000      0.74031200000000   
     0.43776600000000      0.00968800000000      0.75968800000000   
     0.43776600000000      0.50968800000000      1.25968800000000   
     0.93776600000000     -0.00968800000000      0.74031200000000   
     0.93776600000000      0.49031200000000      1.24031200000000   
     0.65623300000000     -0.10136450000000      0.88488950000000   
     0.65623300000000      0.39863550000000      1.38488950000000   
     0.84376700000000      0.13488950000000      0.14863550000000   
     0.84376700000000      0.63488950000000      0.64863550000000   
     0.34376700000000     -0.13488950000000      0.35136450000000   
     0.34376700000000      0.36511050000000      0.85136450000000   
     0.15623300000000      0.10136450000000      0.61511050000000   
     0.15623300000000      0.60136450000000      1.11511050000000   
     0.34376700000000      0.10136450000000      0.11511050000000   
     0.34376700000000      0.60136450000000      0.61511050000000   
     0.15623300000000     -0.13488950000000      0.85136450000000   
     0.15623300000000      0.36511050000000      1.35136450000000   
     0.65623300000000      0.13488950000000      0.64863550000000   
     0.65623300000000      0.63488950000000      1.14863550000000   
     0.84376700000000     -0.10136450000000      0.38488950000000   
     0.84376700000000      0.39863550000000      0.88488950000000   
     0.91419700000000      0.27012850000000      0.52012850000000   
     0.91419700000000      0.77012850000000      1.02012850000000   
     0.58580300000000     -0.22987150000000      0.52012850000000   
     0.58580300000000      0.27012850000000      1.02012850000000   
     0.08580300000000     -0.27012850000000      0.47987150000000   
     0.08580300000000      0.22987150000000      0.97987150000000   
     0.41419700000000      0.22987150000000      0.47987150000000   
     0.41419700000000      0.72987150000000      0.97987150000000   
